NAME : area_scanning
COMMENT : Used for Dubins Area Scanning
TYPE : ATSP
DIMENSION : 8 
EDGE_WEIGHT_TYPE : EXPLICIT
EDGE_WEIGHT_FORMAT : FULL_MATRIX
EDGE_WEIGHT_SECTION
10999 93 165 233 255 168 122 96
1093 10999 72 140 176 111 105 148
1165 1072 10999 67 130 111 142 209
1233 1140 1067 10999 111 144 1193 270
1255 176 130 111 10999 1097 1161 250
168 111 111 144 97 10999 1063 152
122 105 142 193 161 63 10999 89
96 148 209 270 250 152 89 9999
EOF